p cnf 50 25
2 11 -27 0
44 -36 35 0
-41 25 -8 0
35 24 -11 0
37 -42 7 0
-1 46 -3 0
-9 41 -8 0
-28 -36 40 0
32 50 4 0
10 -6 28 0
-5 -47 1 0
-14 16 34 0
27 48 -25 0
3 -15 -6 0
34 4 -28 0
-4 43 27 0
25 -19 34 0
-11 8 -49 0
24 17 36 0
11 -36 -8 0
2 -33 6 0
-3 -30 25 0
-11 -27 31 0
-12 10 15 0
-17 -18 16 0
